
c turning on binary mode checking

c parsing input formula with 11482 variables and 37070 clauses

c finished parsing, read 42842 bytes from proof file

c detected empty clause; start verification via backward checking

c 4219 of 37070 clauses in core                            

c 63 of 9977 lemmas in core using 83750 resolution steps

c 0 RAT lemmas in core; 28 redundant literals in core lemmas

s VERIFIED

c verification time: 0.070 seconds
